
Gurobi 11.0.3 (linux64) logging started Wed Apr 15 13:59:31 2026

Set parameter LogFile to value "tree/results/dmtl/dmtl_depth-3_run-1/Full MIP/LogFile_FullModel.txt"
Gurobi Optimizer version 11.0.3 build v11.0.3rc0 (linux64 - "CentOS Linux 7 (Core)")

CPU model: Intel(R) Xeon(R) Platinum 8260 CPU @ 2.40GHz, instruction set [SSE2|AVX|AVX2|AVX512]
Thread count: 96 physical cores, 192 logical processors, using up to 32 threads

Optimize a model with 22497 rows, 15802 columns and 706519 nonzeros
Model fingerprint: 0x411d9d5a
Model has 2144 general constraints
Variable types: 9084 continuous, 6718 integer (6718 binary)
Coefficient statistics:
  Matrix range     [2e-03, 1e+04]
  Objective range  [4e-03, 1e+04]
  Bounds range     [1e+00, 6e+02]
  RHS range        [1e-04, 1e+03]

User MIP start produced solution with objective 0.813433 (0.16s)
Loaded user MIP start with objective 0.813433

Presolve added 2136 rows and 6431 columns
Presolve time: 0.90s
Presolved: 24633 rows, 22233 columns, 719356 nonzeros
Presolved model has 6432 SOS constraint(s)
Variable types: 9083 continuous, 13150 integer (13150 binary)

Deterministic concurrent LP optimizer: primal simplex, dual simplex, and barrier
Showing barrier log only...

Root relaxation presolved: 24633 rows, 22233 columns, 719356 nonzeros

Root barrier log...

Ordering time: 0.07s

Barrier statistics:
 Dense cols : 245
 AA' NZ     : 7.143e+05
 Factor NZ  : 2.413e+06 (roughly 40 MB of memory)
 Factor Ops : 2.690e+08 (less than 1 second per iteration)
 Threads    : 30

                  Objective                Residual
Iter       Primal          Dual         Primal    Dual     Compl     Time
   0   4.81292198e+02  4.16839238e+08  3.40e+04 5.97e-02  7.99e+05     2s
   1   4.81377003e+01  6.08084675e+08  1.44e+04 7.09e+01  3.11e+05     2s
   2   5.99472510e+00  5.95224362e+08  1.56e+03 1.52e+01  4.43e+04     2s
   3   1.08549743e+00  2.39870031e+08  1.82e+02 1.50e+00  6.92e+03     2s
   4   4.21874612e-01  3.31004239e+07  1.88e+01 1.47e-01  7.79e+02     2s
   5   3.36189660e-01  4.37953509e+06  1.20e+00 1.61e-02  9.42e+01     2s
   6   3.27593439e-01  4.56449535e+05  6.14e-02 1.61e-03  9.49e+00     2s
   7   3.28069058e-01  4.66042989e+04  6.09e-03 1.64e-04  9.65e-01     2s
   8   3.41400347e-01  5.57722240e+03  6.03e-04 1.96e-05  1.15e-01     3s
   9   5.19614916e-01  9.41902571e+02  5.98e-05 3.22e-06  1.95e-02     3s
  10   9.40346587e-01  1.22724515e+02  5.92e-06 3.08e-07  2.51e-03     3s
  11   9.94034658e-01  1.32870407e+01  5.87e-07 3.08e-08  2.54e-04     3s
  12   9.99403466e-01  2.22870912e+00  5.87e-08 3.08e-09  2.54e-05     3s
  13   9.99940346e-01  1.12401685e+00  5.82e-09 3.08e-10  2.56e-06     3s
  14   9.99994035e-01  1.01240169e+00  5.82e-10 3.08e-11  2.56e-07     3s
  15   9.99999403e-01  1.00125173e+00  5.79e-11 3.09e-12  2.58e-08     3s
  16   9.99999940e-01  1.00012517e+00  6.08e-12 3.09e-13  2.58e-09     3s
  17   9.99999994e-01  1.00001252e+00  8.53e-13 3.09e-14  2.58e-10     3s
  18   9.99999999e-01  1.00000125e+00  4.55e-13 3.09e-15  2.58e-11     4s
  19   1.00000000e+00  1.00000013e+00  4.55e-13 3.09e-16  2.58e-12     4s
  20   1.00000000e+00  1.00000001e+00  4.55e-13 3.09e-17  2.58e-13     4s

Barrier solved model in 20 iterations and 3.76 seconds (2.93 work units)
Optimal objective 1.00000000e+00

Concurrent spin time: 0.00s

Solved with barrier

Root relaxation: objective 1.000000e+00, 8528 iterations, 3.07 seconds (2.65 work units)
Total elapsed time = 9.33s (DegenMoves)
Total elapsed time = 10.27s (DegenMoves)

    Nodes    |    Current Node    |     Objective Bounds      |     Work
 Expl Unexpl |  Obj  Depth IntInf | Incumbent    BestBd   Gap | It/Node Time

     0     0    1.00000    0 1292    0.81343    1.00000  22.9%     -   11s
     0     2    1.00000    0 1292    0.81343    1.00000  22.9%     -   21s
     1     4    1.00000    1 1217    0.81343    1.00000  22.9%  6584   37s
     3     8    1.00000    2 1273    0.81343    1.00000  22.9%  4254   76s
     7    16    1.00000    3 1300    0.81343    1.00000  22.9%  3968   92s
    15    32    1.00000    4 1298    0.81343    1.00000  22.9%  2996  107s
    31    64    1.00000    5 1300    0.81343    1.00000  22.9%  2069  116s
    63    96    1.00000    6 1300    0.81343    1.00000  22.9%  1197  208s
    95   128    1.00000    7 1300    0.81343    1.00000  22.9%   912  237s
   127   160    1.00000    8 1300    0.81343    1.00000  22.9%   685  240s
   159   192    1.00000    9 1300    0.81343    1.00000  22.9%   560  317s
   191   252    1.00000   10 1300    0.81343    1.00000  22.9%   468  333s
   251   405    1.00000   12 1300    0.81343    1.00000  22.9%   466  644s
   404   971    1.00000   13 1399    0.81343    1.00000  22.9%   541  752s
   970  1812    1.00000   31 1291    0.81343    1.00000  22.9%   673 1516s
  1811  3754    1.00000   53 1406    0.81343    1.00000  22.9%   742 3600s

Explored 3753 nodes (2948267 simplex iterations) in 3600.22 seconds (8563.91 work units)
Thread count was 32 (of 192 available processors)

Solution count 1: 0.813433 

Time limit reached
Best objective 8.134328358209e-01, best bound 1.000000000000e+00, gap 22.9358%

User-callback calls 2647110, time in user-callback 16.36 sec
